260.05
272.73
273.92
274.98
271.62
274.15
271.82
273.27
274.01
272.79
273.09
272.70
274.94
272.48
273.32
275.29
275.12
274.27
270.17
274.27
270.52
272.03
273.73
275.44
274.48
275.32
274.68
274.06
270.47
273.49
274.04
257.28
256.26
254.97
256.56
256.54
255.19
256.23
256.25
255.46
256.08
256.16
256.49
254.65
256.27
255.40
255.64
254.77
256.76
255.93
257.21
256.86
255.94
256.74
256.57
255.91
255.38
255.40
257.36
255.10
255.25
256.30
255.41
256.56
254.39
254.17
256.07
255.73
254.58
254.84
256.15
256.03
255.75
256.78
257.77
255.83
254.68
255.12
256.02
256.94
